c graph colorability of graph:
c .
c
c Generated with `cnfgen`
c (C) 2012-2019 Massimo Lauria <massimo.lauria@uniroma1.it>
c https://massimolauria.net/cnfgen
c
c COMMAND LINE: cnfgen -v -o kcolor2.cnf kcolor 3 --gnp 4 0.4
c
p cnf 12 25
1 2 3 0
-1 -2 0
-1 -3 0
-2 -3 0
4 5 6 0
-4 -5 0
-4 -6 0
-5 -6 0
7 8 9 0
-7 -8 0
-7 -9 0
-8 -9 0
10 11 12 0
-10 -11 0
-10 -12 0
-11 -12 0
-1 -4 0
-2 -5 0
-3 -6 0
-1 -7 0
-2 -8 0
-3 -9 0
-4 -10 0
-5 -11 0
-6 -12 0
